\ENCODING=ISO-8859-1
\Problem name: IloCplex

Minimize
 obj1: 1393 K_1#0 + 644 K_2#1 + 1029 K_6#2 + 1029 K_6#3 + 1029 K_6#4
       + 1003 K_7#5 + 1003 K_7#6 + 1003 K_7#7 + 511 K_3#8 + 482 K_4#9
Subject To
 c1: K_1#0 + K_2#1 + K_6#2 + K_6#3 + K_6#4 + K_7#5 + K_7#6 + K_7#7 >= 1
 c2: K_1#0 + K_6#3 + K_6#4 + K_3#8 >= 1
 c3: K_1#0 + K_7#7 + K_4#9 >= 1
End
